Ba6 N3                                  
   1.00000000000000     
     4.0456204413999997    0.0000000000000000    0.0000000000000000
    -2.0228102206999998    3.5036100764000002    0.0000000000000000
     0.0000000000000000    0.0000000000000000   23.0249252318999993
   Ba   N 
     6     3
Direct
 -0.0000000000000000 -0.0000000000000000  0.2678669608932965
  0.0000000000000000  0.0000000000000000  0.7321330101067047
  0.6666666870000029  0.3333333429999996  0.6012003038932960
  0.6666666870000029  0.3333333429999996  0.0654663751067061
  0.3333333429999996  0.6666666870000029  0.9345336168932932
  0.3333333429999996  0.6666666870000029  0.3987996961067039
 -0.0000000000000000 -0.0000000000000000 -0.0000000000000000
  0.6666666870000029  0.3333333429999996  0.3333333429999996
  0.3333333429999996  0.6666666870000029  0.6666666870000029
 
  0.00000000E+00  0.00000000E+00  0.00000000E+00
  0.00000000E+00  0.00000000E+00  0.00000000E+00
  0.00000000E+00  0.00000000E+00  0.00000000E+00
  0.00000000E+00  0.00000000E+00  0.00000000E+00
  0.00000000E+00  0.00000000E+00  0.00000000E+00
  0.00000000E+00  0.00000000E+00  0.00000000E+00
  0.00000000E+00  0.00000000E+00  0.00000000E+00
  0.00000000E+00  0.00000000E+00  0.00000000E+00
  0.00000000E+00  0.00000000E+00  0.00000000E+00
